src/asp/benchmarks/small4.lp
citta(san_giustino).
citta(castiglione_del_lago).
citta(orvieto).

richiesta(san_giustino, strade, 100).
richiesta(san_giustino, fiumi, 51).
richiesta(san_giustino, scuole, 31).
richiesta(san_giustino, parchi, 40).
richiesta(san_giustino, energia, 230).

richiesta(castiglione_del_lago, strade, 25).
richiesta(castiglione_del_lago, fiumi, 6).
richiesta(castiglione_del_lago, scuole, 30).
richiesta(castiglione_del_lago, parchi, 8).
richiesta(castiglione_del_lago, energia, 10).

richiesta(orvieto, strade, 196).
richiesta(orvieto, fiumi, 61).
richiesta(orvieto, scuole, 43).
richiesta(orvieto, parchi, 46).
richiesta(orvieto, energia, 114).

