src/minizinc/benchmarks/small4.dzn
COMUNI = {
	san_giustino,
	citta_di_castello,
	magione,
};

NUMERO_COMUNI = 3;

ABITANTI_PER_COMUNE = [11, 38, 14];

STRADE_TRA_COMUNI = [|
	false, true, false |
	true, false, false |
	false, false, false |
|];

RICHIESTE = [|
	50, 164, 68, 7, 50 |
	47, 93, 17, 108, 7 |
	124, 74, 148, 30, 8 |
|];
